NAME : instance_20_400
TYPE : TSP
DIMENSION : 20
EDGE_WEIGHT_TYPE : EUC_2D
LOWER : 0
UPPER : 100
NODE_COORD_SECTION
1 27.4176650448 74.4064365746
2 42.0874222415 73.8977690693
3 0.754860579 64.7452615201
4 6.004423392 21.0779931629
5 51.1754804291 81.2191302422
6 86.0596999992 28.4074941417
7 45.5214864807 55.1664602943
8 80.9568574186 38.5433984455
9 41.2239018595 90.3920837212
10 36.6786062019 18.1080962298
11 94.9148339219 74.1058725398
12 92.7599672927 8.0211021472
13 96.6055937344 97.7599082049
14 96.7215422774 63.9787807362
15 88.9002588578 37.6372103347
16 7.8810543288 58.9539982146
17 21.8362213811 60.2002840722
18 8.8260955876 84.1486020712
19 55.8948363876 20.6131259911
20 70.8539997227 93.481120863
EOF
